words_easy_train/words_144_UNSAT.qaiger
aag 28 16 0 1 12
32
2
14
16
26
22
24
10
28
18
4
30
20
8
12
6
57
34 30 15
36 11 9
38 36 13
40 7 5
42 40 38
44 31 14
46 45 20
48 46 42
50 49 35
52 50 16
54 51 17
56 55 53
i0 2 y1[7]
i1 1 x1[0]
i2 1 x1[6]
i3 1 x1[7]
i4 2 y1[4]
i5 2 y1[2]
i6 2 y1[3]
i7 1 x1[4]
i8 2 y1[5]
i9 2 y1[0]
i10 1 x1[1]
i11 2 y1[6]
i12 2 y1[1]
i13 1 x1[3]
i14 1 x1[5]
i15 1 x1[2]
o0 bv[0]
c
simplified
  <
    1 x1
    and
      unary minus
        190
      2 y1
