words_easy_train/words_144_UNSAT.qaiger.qdimacs
p cnf 28 37
a 1 2 3 4 5 6 7 8 0
e 9 10 11 12 13 14 15 16 17 18 19 20 21 22 23 24 25 26 27 28 0
-15 7 17 0
15 -17 0
-7 -17 0
5 4 18 0
-5 -18 0
-4 -18 0
-18 6 19 0
18 -19 0
-6 -19 0
3 2 20 0
-3 -20 0
-2 -20 0
-20 -19 21 0
20 -21 0
19 -21 0
15 -7 22 0
-15 -22 0
7 -22 0
22 -10 23 0
-22 -23 0
10 -23 0
-23 -21 24 0
23 -24 0
21 -24 0
24 17 25 0
-24 -25 0
-17 -25 0
-25 -8 26 0
25 -26 0
8 -26 0
25 8 27 0
-25 -27 0
-8 -27 0
27 26 28 0
-27 -28 0
-26 -28 0
-28 0
